 vasp.5.4.4.18Apr17-6-g9f103f2a35 (build Feb 09 2019 00:23:50) complex

 executed on             LinuxIFC date 2019.08.16  17:01:55

 INCAR:
 POTCAR:    PAW_PBE K_sv 06Sep2000
 POTCAR:    PAW_PBE Nb_sv 25May2007
 POTCAR:    PAW_PBE O 08Apr2002

 POTCAR:    PAW_PBE K_sv 06Sep2000
   VRHFIN =K:  3s3p4s

   TITEL  = PAW_PBE K_sv 06Sep2000
   POMASS =   39.098; ZVAL   =    9.000    mass and valenz
   ENMAX  =  259.264; ENMIN  =  194.448 eV

 POTCAR:    PAW_PBE Nb_sv 25May2007
   VRHFIN =Nb: 4p5s4d

   TITEL  = PAW_PBE Nb_sv 25May2007
   POMASS =   92.910; ZVAL   =   13.000    mass and valenz
   ENMAX  =  293.235; ENMIN  =  219.927 eV

 POTCAR:    PAW_PBE O 08Apr2002
   VRHFIN =O: s2p4

   TITEL  = PAW_PBE O 08Apr2002
   POMASS =   16.000; ZVAL   =    6.000    mass and valenz
   ENMAX  =  400.000; ENMIN  =  300.000 eV

  PAW_PBE K_sv 06Sep2000                :
  PAW_PBE Nb_sv 25May2007               :
  PAW_PBE O 08Apr2002                   :

 POSCAR: na1 nb1 o3
  positions in direct lattice
 exchange correlation table for  LEXCH =       14
   RHO(1)=    0.500       N(1)  =     2000
   RHO(2)=  100.500       N(2)  =     4000

 ion  position               nearest neighbor table
   1  0.000  0.000  0.250-  13 2.40  17 2.40  15 2.40  20 2.78  24 2.78  22 2.78  30 2.78  26 2.78
                            28 2.78  12 3.37   9 3.37  12 3.37  12 3.37   9 3.37   9 3.37   8 3.39
   2  0.000  0.000  0.750-  16 2.40  18 2.40  14 2.40  29 2.78  25 2.78  27 2.78  19 2.78  23 2.78
                            21 2.78  10 3.37  11 3.37  10 3.37  11 3.37  10 3.37  11 3.37   7 3.39
   3  0.667  0.333  0.583-  23 2.40  19 2.40  21 2.40  26 2.78  28 2.78  30 2.78  14 2.78  16 2.78
                            18 2.78  11 3.37   8 3.37   8 3.37   8 3.37  11 3.37  11 3.37  10 3.39
   4  0.667  0.333  0.083-  20 2.40  22 2.40  24 2.40  15 2.78  13 2.78  17 2.78  27 2.78  25 2.78
                            29 2.78  12 3.37  12 3.37   7 3.37   7 3.37   7 3.37  12 3.37   9 3.39
   5  0.333  0.667  0.917-  27 2.40  25 2.40  29 2.40  18 2.78  16 2.78  14 2.78  22 2.78  20 2.78
                            24 2.78  10 3.37   7 3.37  10 3.37   7 3.37   7 3.37  10 3.37  11 3.39
   6  0.333  0.667  0.417-  30 2.40  26 2.40  28 2.40  21 2.78  19 2.78  23 2.78  17 2.78  13 2.78
                            15 2.78   8 3.37   8 3.37   9 3.37   9 3.37   8 3.37   9 3.37  11 3.39
   7  0.000  0.000  0.000-  29 1.98  20 1.98  25 1.98  24 1.98  22 1.98  27 1.98   5 3.37   4 3.37
                             5 3.37   4 3.37   4 3.37   5 3.37   2 3.39   1 3.39
   8  0.000  0.000  0.500-  30 1.98  26 1.98  28 1.98  19 1.98  23 1.98  21 1.98   6 3.37   6 3.37
                             3 3.37   6 3.37   3 3.37   3 3.37   1 3.39   2 3.39
   9  0.667  0.333  0.333-  13 1.98  30 1.98  15 1.98  28 1.98  26 1.98  17 1.98   1 3.37   6 3.37
                             6 3.37   1 3.37   1 3.37   6 3.37   4 3.39   3 3.39
  10  0.667  0.333  0.833-  14 1.98  27 1.98  18 1.98  16 1.98  29 1.98  25 1.98   2 3.37   2 3.37
                             5 3.37   5 3.37   2 3.37   5 3.37   3 3.39   4 3.39
  11  0.333  0.667  0.667-  18 1.98  21 1.98  19 1.98  14 1.98  16 1.98  23 1.98   3 3.37   2 3.37
                             2 3.37   3 3.37   3 3.37   2 3.37   5 3.39   6 3.39
  12  0.333  0.667  0.167-  17 1.98  20 1.98  15 1.98  22 1.98  24 1.98  13 1.98   1 3.37   4 3.37
                             4 3.37   1 3.37   1 3.37   4 3.37   5 3.39   6 3.39
  13  0.000  0.563  0.250-   9 1.98  12 1.98   1 2.40   4 2.78   6 2.78
  14  0.000  0.437  0.750-  10 1.98  11 1.98   2 2.40   5 2.78   3 2.78
  15  0.437  0.437  0.250-  12 1.98   9 1.98   1 2.40   4 2.78   6 2.78
  16  0.563  0.563  0.750-  10 1.98  11 1.98   2 2.40   5 2.78   3 2.78
  17  0.563  0.000  0.250-  12 1.98   9 1.98   1 2.40   4 2.78   6 2.78
  18  0.437  0.000  0.750-  11 1.98  10 1.98   2 2.40   5 2.78   3 2.78
  19  0.667  0.896  0.583-   8 1.98  11 1.98   3 2.40   6 2.78   2 2.78
  20  0.667  0.770  0.083-  12 1.98   7 1.98   4 2.40   1 2.78   5 2.78
  21  0.104  0.770  0.583-  11 1.98   8 1.98   3 2.40   6 2.78   2 2.78
  22  0.230  0.896  0.083-  12 1.98   7 1.98   4 2.40   1 2.78   5 2.78
  23  0.230  0.333  0.583-   8 1.98  11 1.98   3 2.40   6 2.78   2 2.78
  24  0.104  0.333  0.083-  12 1.98   7 1.98   4 2.40   1 2.78   5 2.78
  25  0.333  0.230  0.917-   7 1.98  10 1.98   5 2.40   2 2.78   4 2.78
  26  0.333  0.104  0.417-   8 1.98   9 1.98   6 2.40   3 2.78   1 2.78
  27  0.770  0.104  0.917-  10 1.98   7 1.98   5 2.40   2 2.78   4 2.78
  28  0.896  0.230  0.417-   8 1.98   9 1.98   6 2.40   3 2.78   1 2.78
  29  0.896  0.667  0.917-   7 1.98  10 1.98   5 2.40   2 2.78   4 2.78
  30  0.770  0.667  0.417-   8 1.98   9 1.98   6 2.40   3 2.78   1 2.78

  LATTYP: Found a hexagonal cell.
 ALAT       =     5.4900707142
 C/A-ratio  =     2.4726577783

  Lattice vectors:

 A1 = (   5.4900707142,  -0.0000000000,   0.0000000000)
 A2 = (  -2.7450353572,   4.7545407071,   0.0000000000)
 A3 = (   0.0000000000,   0.0000000000,  13.5750660548)

Analysis of symmetry for initial positions (statically):
 Subroutine PRICEL returns following result:

  LATTYP: Found a trigonal (rhomboedric) cell.
 ALAT       =     5.5247425074
 COS(alpha) =     0.5062561064

[...]

   3 primitive cells build up your supercell.

 Routine SETGRP: Setting up the symmetry group for a
 hexagonal supercell.

 Subroutine GETGRP returns: Found 12 space group operations
 (whereof  6 operations were pure point group operations)
 out of a pool of 24 trial point group operations.

The static configuration has the point symmetry S_6 .
 The point group associated with its full space group is D_3d.

Analysis of symmetry for dynamics (positions and initial velocities):
 Subroutine PRICEL returns following result:

[...]

The dynamic configuration has the point symmetry S_6 .
 The point group associated with its full space group is D_3d.

 Subroutine INISYM returns: Found 12 space group operations
 (whereof  6 operations are pure point group operations),
 and found     3 'primitive' translations

 KPOINTS: Automatic mesh

Automatic generation of k-mesh.
Space group operators:
 irot       det(A)        alpha          n_x          n_y          n_z        tau_x        tau_y        tau_z
    1     1.000000     0.000001     1.000000     0.000000     0.000000     0.000000     0.000000     0.000000
    2    -1.000000     0.000001     1.000000     0.000000     0.000000     0.000000     0.000000     0.000000
    3     1.000000   120.000000     0.000000     0.000000    -1.000000     0.000000     0.000000     0.000000
    4    -1.000000   120.000000     0.000000     0.000000    -1.000000     0.000000     0.000000     0.000000
    5     1.000000   120.000000     0.000000     0.000000     1.000000     0.000000     0.000000     0.000000
    6    -1.000000   120.000000     0.000000     0.000000     1.000000     0.000000     0.000000     0.000000
    7     1.000000   180.000000     1.000000     0.000000     0.000000     0.000000     0.000000    -0.500000
    8    -1.000000   180.000000     1.000000     0.000000     0.000000    -0.000000    -0.000000    -0.500000
    9     1.000000   180.000000     0.500000    -0.866025     0.000000     0.000000     0.000000    -0.500000
   10    -1.000000   180.000000     0.500000    -0.866025     0.000000    -0.000000     0.000000    -0.500000
   11     1.000000   180.000000    -0.500000    -0.866025     0.000000    -0.000000    -0.000000    -0.500000
   12    -1.000000   180.000000    -0.500000    -0.866025     0.000000     0.000000     0.000000    -0.500000

 Subroutine IBZKPT returns following result:

 Found     20 irreducible k-points:

 Following reciprocal coordinates:
            Coordinates               Weight
  0.000000  0.000000  0.000000      1.000000
  0.142857  0.000000  0.000000      6.000000
  0.285714  0.000000  0.000000      6.000000
  0.428571  0.000000  0.000000      6.000000
  0.142857  0.142857  0.000000      6.000000
  0.285714  0.142857  0.000000     12.000000
  0.428571  0.142857  0.000000      6.000000
  0.285714  0.285714  0.000000      6.000000
  0.000000  0.000000  0.333333      2.000000
  0.142857  0.000000  0.333333      6.000000
  0.285714  0.000000  0.333333      6.000000
  0.428571  0.000000  0.333333      6.000000
 -0.428571 -0.000000  0.333333      6.000000
 -0.285714  0.000000  0.333333      6.000000
 -0.142857  0.000000  0.333333      6.000000
  0.142857  0.142857  0.333333     12.000000
  0.285714  0.142857  0.333333     12.000000
  0.428571  0.142857  0.333333     12.000000
 -0.428571  0.142857  0.333333     12.000000
  0.285714  0.285714  0.333333     12.000000

 Following cartesian coordinates:
            Coordinates               Weight
  0.000000  0.000000  0.000000      1.000000
  0.026021  0.015023  0.000000      6.000000
  0.052042  0.030046  0.000000      6.000000
  0.078063  0.045070  0.000000      6.000000
  0.026021  0.045070  0.000000      6.000000
  0.052042  0.060093  0.000000     12.000000
  0.078063  0.075116  0.000000      6.000000
  0.052042  0.090139  0.000000      6.000000
  0.000000  0.000000  0.024555      2.000000
  0.026021  0.015023  0.024555      6.000000
  0.052042  0.030046  0.024555      6.000000
  0.078063  0.045070  0.024555      6.000000
 -0.078063 -0.045070  0.024555      6.000000
 -0.052042 -0.030046  0.024555      6.000000
 -0.026021 -0.015023  0.024555      6.000000
  0.026021  0.045070  0.024555     12.000000
  0.052042  0.060093  0.024555     12.000000
  0.078063  0.075116  0.024555     12.000000
 -0.078063 -0.015023  0.024555     12.000000
  0.052042  0.090139  0.024555     12.000000

 Subroutine IBZKPT_HF returns following result:

 Found    147 k-points in 1st BZ
 the following    147 k-points will be used (e.g. in the exchange kernel)
 Following reciprocal coordinates:   # in IRBZ
  0.000000  0.000000  0.000000    0.00680272   1 t-inv F
  0.142857  0.000000  0.000000    0.00680272   2 t-inv F
  0.285714  0.000000  0.000000    0.00680272   3 t-inv F
  0.428571  0.000000  0.000000    0.00680272   4 t-inv F
  0.142857  0.142857  0.000000    0.00680272   5 t-inv F
  0.285714  0.142857  0.000000    0.00680272   6 t-inv F
  0.428571  0.142857  0.000000    0.00680272   7 t-inv F
  0.285714  0.285714  0.000000    0.00680272   8 t-inv F
  0.000000  0.000000  0.333333    0.00680272   9 t-inv F
  0.142857  0.000000  0.333333    0.00680272  10 t-inv F
  0.285714  0.000000  0.333333    0.00680272  11 t-inv F
  0.428571  0.000000  0.333333    0.00680272  12 t-inv F
 -0.428571 -0.000000  0.333333    0.00680272  13 t-inv F
 -0.285714  0.000000  0.333333    0.00680272  14 t-inv F
 -0.142857  0.000000  0.333333    0.00680272  15 t-inv F
  0.142857  0.142857  0.333333    0.00680272  16 t-inv F
  0.285714  0.142857  0.333333    0.00680272  17 t-inv F
  0.428571  0.142857  0.333333    0.00680272  18 t-inv F
 -0.428571  0.142857  0.333333    0.00680272  19 t-inv F
  0.285714  0.285714  0.333333    0.00680272  20 t-inv F
 -0.142857  0.000000  0.000000    0.00680272   2 t-inv F
 -0.142857  0.142857  0.000000    0.00680272   2 t-inv F
  0.142857 -0.142857  0.000000    0.00680272   2 t-inv F
[...]
 29Z    -0.007870   -0.002947   -0.297208    0.102939    0.040386    0.371816    0.007870   -0.002947   -0.297208   -0.102939    0.040386    0.371816   -0.000000    0.145649    0.575955   -0.000000    0.013095   -0.298028    0.056633   -0.302875    4.567351   -0.051431   -0.166955   -2.561353    0.051431   -0.166955   -2.561353   -0.056633   -0.302875    4.567351   -0.016530    0.375187   -2.487906    0.016530    0.375187   -2.487906   -0.576180   -0.292993    0.871514   -1.247293    0.435421    1.623886    0.543936   -0.301682    0.845319    1.512369    0.256245    1.623627    0.000850    0.855201    1.186636    0.264237    1.452180    1.160400   -0.543936   -0.301682    0.845319   -1.512369    0.256245    1.623627    0.576180   -0.292993    0.871514    1.247293    0.435421    1.623886   -0.000850    0.855201    1.186636   -0.264237    1.452180    1.160400    2.101370    1.505829   -2.601316   -0.607936   -0.319472    0.942765   -2.101370    1.505829   -2.601316    0.607936   -0.319472    0.942765    0.000000   -7.943859  -11.739529   -0.000000    0.718067    0.970540
 30X     0.095491    0.001028   -0.069582    0.033339    0.003604   -0.002604    0.095491   -0.001028    0.069582    0.033339   -0.003604    0.002604    0.002918   -0.000000    0.000000    3.339088   -0.000000   -0.000000   -0.037004   -0.023740    0.001969    0.640827    1.819018    1.219074    0.640827   -1.819018   -1.219074   -0.037004    0.023740   -0.001969   -0.658343   -0.341601    0.051634   -0.658343    0.341601   -0.051634    0.666572   -0.077274   -1.002430    0.023008    0.011296   -0.009445    0.352149    0.258252    0.976225    0.044068    0.022822    0.035159    0.427652   -0.486294   -0.266254    0.100287    0.004276    0.001926    0.352149   -0.258252   -0.976225    0.044068   -0.022822   -0.035159    0.666572    0.077274    1.002430    0.023008   -0.011296    0.009445    0.427652    0.486294    0.266254    0.100287   -0.004276   -0.001926    0.020857    0.003261   -0.027358    1.165050    1.694384   -0.253666    0.020857   -0.003261    0.027358    1.165050   -1.694384    0.253666    0.017232   -0.000000   -0.000000   -9.107147    0.000000    0.000000
 30Y     0.014137    0.218929    0.048436    0.003890    0.009308   -0.221541   -0.014137    0.218929    0.048436   -0.003890    0.009308   -0.221541   -0.000000    0.009825   -0.215961   -0.000000    0.128034    0.534465    0.037706   -0.120451   -1.835603   -0.566190   -0.177293    3.737781    0.566190   -0.177293    3.737781   -0.037706   -0.120451   -1.835603    0.094314   -0.111987   -2.008994   -0.094314   -0.111987   -2.008994   -0.807169   -0.261391    0.862492   -0.452971   -0.231375    0.622520    0.987091    0.050438    1.182105    0.454044   -0.231627    0.645763   -0.484416    2.626010    1.452781   -0.003513    0.756729    0.855457   -0.987091    0.050438    1.182105   -0.454044   -0.231627    0.645763    0.807169   -0.261391    0.862492    0.452971   -0.231375    0.622520    0.484416    2.626010    1.452781    0.003513    0.756729    0.855457   -0.439285   -0.230881    0.686964    4.655215    4.830981   -2.573340    0.439285   -0.230881    0.686964   -4.655215    4.830981   -2.573340   -0.000000    0.536123    0.717820    0.000000  -14.928764   -7.945967
 30Z    -0.102939    0.040386    0.371816    0.007870   -0.002947   -0.297208    0.102939    0.040386    0.371816   -0.007870   -0.002947   -0.297208   -0.000000    0.013095   -0.298028   -0.000000    0.145649    0.575955    0.051431   -0.166955   -2.561353   -0.056633   -0.302875    4.567351    0.056633   -0.302875    4.567351   -0.051431   -0.166955   -2.561353   -0.016530    0.375187   -2.487906    0.016530    0.375187   -2.487906   -1.512369    0.256245    1.623627   -0.543936   -0.301682    0.845319    1.247293    0.435421    1.623886    0.576180   -0.292993    0.871514   -0.264237    1.452180    1.160400   -0.000850    0.855201    1.186636   -1.247293    0.435421    1.623886   -0.576180   -0.292993    0.871514    1.512369    0.256245    1.623627    0.543936   -0.301682    0.845319    0.264237    1.452180    1.160400    0.000850    0.855201    1.186636   -0.607936   -0.319472    0.942765    2.101370    1.505829   -2.601316    0.607936   -0.319472    0.942765   -2.101370    1.505829   -2.601316   -0.000000    0.718067    0.970540    0.000000   -7.943859  -11.739529

 Eigenvectors and eigenvalues of the dynamical matrix

   1 f  =   26.916414 THz   169.120816 2PiTHz  897.834897 cm-1   111.317380 meV
             X         Y         Z           dx          dy          dz
      0.000000  0.000000  3.393767     0.000000    0.000000    0.001024
      0.000000  0.000000 10.181300    -0.000000   -0.000000   -0.001024
      2.745035  1.584847  7.918789     0.000000    0.000000    0.001024
      2.745035  1.584847  1.131256    -0.000000   -0.000000   -0.001024
      0.000000  3.169694 12.443810     0.000000    0.000000    0.001024
      0.000000  3.169694  5.656278    -0.000000   -0.000000   -0.001024
      0.000000  0.000000  0.000000     0.000000   -0.000000   -0.000000
      0.000000  0.000000  6.787533    -0.000000   -0.000000   -0.000000
      2.745035  1.584847  4.525022     0.000000   -0.000000   -0.000000
      2.745036  1.584847 11.312555    -0.000000   -0.000000   -0.000000
     -0.000000  3.169694  9.050044     0.000000    0.000000    0.000000
      0.000000  3.169694  2.262511    -0.000000    0.000000    0.000000
     -1.545750  2.677317  3.393767    -0.165007   -0.095267    0.138752
     -1.199286  2.077224 10.181300     0.165007    0.095267   -0.138752
      1.199286  2.077224  3.393767     0.165007   -0.095267    0.138752
      1.545750  2.677317 10.181300    -0.165007    0.095267   -0.138752
      3.091500 -0.000000  3.393767    -0.000000    0.190534    0.138752
      2.398571 -0.000000 10.181300     0.000000   -0.190534   -0.138752
      1.199286  4.262164  7.918789    -0.165007   -0.095267    0.138752
      1.545750  3.662070  1.131256     0.165007    0.095267   -0.138752
     -1.545750  3.662070  7.918789     0.165007   -0.095267    0.138752
     -1.199285  4.262164  1.131256    -0.165007    0.095267   -0.138752
      0.346464  1.584847  7.918789    -0.000000    0.190534    0.138752
     -0.346464  1.584847  1.131256     0.000000   -0.190534   -0.138752
      1.199286  1.092470 12.443810    -0.165007   -0.095267    0.138752
      1.545750  0.492377  5.656278     0.165007    0.095267   -0.138752
      3.944321  0.492377 12.443810     0.165007   -0.095267    0.138752
      4.290785  1.092470  5.656278    -0.165007    0.095267   -0.138752
      3.091500  3.169694 12.443810    -0.000000    0.190534    0.138752
      2.398571  3.169694  5.656278     0.000000   -0.190534   -0.138752

[...]

  85 f  =    0.000775 THz     0.004868 2PiTHz    0.025842 cm-1     0.003204 meV
             X         Y         Z           dx          dy          dz
      0.000000  0.000000  3.393767     0.000000    0.000000   -0.190311
      0.000000  0.000000 10.181300     0.000000    0.000000   -0.190311
      2.745035  1.584847  7.918789     0.000000    0.000000   -0.190311
      2.745035  1.584847  1.131256     0.000000    0.000000   -0.190311
      0.000000  3.169694 12.443810     0.000000    0.000000   -0.190311
      0.000000  3.169694  5.656278     0.000000    0.000000   -0.190311
      0.000000  0.000000  0.000000     0.000000    0.000000   -0.293346
      0.000000  0.000000  6.787533     0.000000    0.000000   -0.293346
      2.745035  1.584847  4.525022     0.000000    0.000000   -0.293346
      2.745036  1.584847 11.312555     0.000000    0.000000   -0.293346
     -0.000000  3.169694  9.050044     0.000000    0.000000   -0.293346
      0.000000  3.169694  2.262511     0.000000    0.000000   -0.293346
     -1.545750  2.677317  3.393767     0.000004    0.000003   -0.121651
     -1.199286  2.077224 10.181300     0.000004    0.000003   -0.121651
      1.199286  2.077224  3.393767    -0.000004    0.000003   -0.121651
      1.545750  2.677317 10.181300    -0.000004    0.000003   -0.121651
      3.091500 -0.000000  3.393767     0.000000   -0.000005   -0.121651
      2.398571 -0.000000 10.181300     0.000000   -0.000005   -0.121651
      1.199286  4.262164  7.918789     0.000004    0.000003   -0.121651
      1.545750  3.662070  1.131256     0.000004    0.000003   -0.121651
     -1.545750  3.662070  7.918789    -0.000004    0.000003   -0.121651
     -1.199285  4.262164  1.131256    -0.000004    0.000003   -0.121651
      0.346464  1.584847  7.918789     0.000000   -0.000005   -0.121651
     -0.346464  1.584847  1.131256     0.000000   -0.000005   -0.121651
      1.199286  1.092470 12.443810     0.000004    0.000003   -0.121651
      1.545750  0.492377  5.656278     0.000004    0.000003   -0.121651
      3.944321  0.492377 12.443810    -0.000004    0.000003   -0.121651
      4.290785  1.092470  5.656278    -0.000004    0.000003   -0.121651
      3.091500  3.169694 12.443810     0.000000   -0.000005   -0.121651
      2.398571  3.169694  5.656278     0.000000   -0.000005   -0.121651

  86 f/i=    0.009940 THz     0.062453 2PiTHz    0.331553 cm-1     0.041107 meV
             X         Y         Z           dx          dy          dz
      0.000000  0.000000  3.393767    -0.024087    0.188446    0.000000
      0.000000  0.000000 10.181300    -0.024087    0.188446    0.000000
      2.745035  1.584847  7.918789    -0.024087    0.188446    0.000000
      2.745035  1.584847  1.131256    -0.024087    0.188446    0.000000
      0.000000  3.169694 12.443810    -0.024087    0.188446    0.000000
      0.000000  3.169694  5.656278    -0.024087    0.188446    0.000000
      0.000000  0.000000  0.000000    -0.037323    0.291109    0.000000
      0.000000  0.000000  6.787533    -0.037098    0.291137    0.000000
      2.745035  1.584847  4.525022    -0.037323    0.291109    0.000000
      2.745036  1.584847 11.312555    -0.037098    0.291137    0.000000
     -0.000000  3.169694  9.050044    -0.037323    0.291109    0.000000
      0.000000  3.169694  2.262511    -0.037098    0.291137    0.000000
     -1.545750  2.677317  3.393767    -0.015335    0.120651   -0.000038
     -1.199286  2.077224 10.181300    -0.015335    0.120651   -0.000038
      1.199286  2.077224  3.393767    -0.015541    0.120678   -0.000060
      1.545750  2.677317 10.181300    -0.015541    0.120678   -0.000060
      3.091500 -0.000000  3.393767    -0.015415    0.120843    0.000098
      2.398571 -0.000000 10.181300    -0.015415    0.120843    0.000098
      1.199286  4.262164  7.918789    -0.015335    0.120651   -0.000038
      1.545750  3.662070  1.131256    -0.015335    0.120651   -0.000038
     -1.545750  3.662070  7.918789    -0.015541    0.120678   -0.000060
     -1.199285  4.262164  1.131256    -0.015541    0.120678   -0.000060
      0.346464  1.584847  7.918789    -0.015415    0.120843    0.000098
     -0.346464  1.584847  1.131256    -0.015415    0.120843    0.000098
      1.199286  1.092470 12.443810    -0.015335    0.120651   -0.000038
      1.545750  0.492377  5.656278    -0.015335    0.120651   -0.000038
      3.944321  0.492377 12.443810    -0.015541    0.120678   -0.000060
      4.290785  1.092470  5.656278    -0.015541    0.120678   -0.000060
      3.091500  3.169694 12.443810    -0.015415    0.120843    0.000098
      2.398571  3.169694  5.656278    -0.015415    0.120843    0.000098

[...]

  90 f/i=    3.981551 THz    25.016821 2PiTHz  132.810234 cm-1    16.466376 meV
             X         Y         Z           dx          dy          dz
      0.000000  0.000000  3.393767    -0.000000    0.000000    0.000538
      0.000000  0.000000 10.181300    -0.000000    0.000000    0.000538
      2.745035  1.584847  7.918789    -0.000000    0.000000    0.000538
      2.745035  1.584847  1.131256    -0.000000    0.000000    0.000538
      0.000000  3.169694 12.443810    -0.000000    0.000000    0.000538
      0.000000  3.169694  5.656278    -0.000000    0.000000    0.000538
      0.000000  0.000000  0.000000     0.000000    0.000000    0.237894
      0.000000  0.000000  6.787533     0.000000   -0.000000    0.237894
      2.745035  1.584847  4.525022     0.000000    0.000000    0.237894
      2.745036  1.584847 11.312555     0.000000   -0.000000    0.237894
     -0.000000  3.169694  9.050044     0.000000    0.000000    0.237894
      0.000000  3.169694  2.262511     0.000000   -0.000000    0.237894
     -1.545750  2.677317  3.393767     0.003803    0.002196   -0.191498
     -1.199286  2.077224 10.181300     0.003803    0.002196   -0.191498
      1.199286  2.077224  3.393767    -0.003803    0.002196   -0.191498
      1.545750  2.677317 10.181300    -0.003803    0.002196   -0.191498
      3.091500 -0.000000  3.393767    -0.000000   -0.004392   -0.191498
      2.398571 -0.000000 10.181300    -0.000000   -0.004392   -0.191498
      1.199286  4.262164  7.918789     0.003803    0.002196   -0.191498
      1.545750  3.662070  1.131256     0.003803    0.002196   -0.191498
     -1.545750  3.662070  7.918789    -0.003803    0.002196   -0.191498
     -1.199285  4.262164  1.131256    -0.003803    0.002196   -0.191498
      0.346464  1.584847  7.918789    -0.000000   -0.004392   -0.191498
     -0.346464  1.584847  1.131256    -0.000000   -0.004392   -0.191498
      1.199286  1.092470 12.443810     0.003803    0.002196   -0.191498
      1.545750  0.492377  5.656278     0.003803    0.002196   -0.191498
      3.944321  0.492377 12.443810    -0.003803    0.002196   -0.191498
      4.290785  1.092470  5.656278    -0.003803    0.002196   -0.191498
      3.091500  3.169694 12.443810    -0.000000   -0.004392   -0.191498
      2.398571  3.169694  5.656278    -0.000000   -0.004392   -0.191498

 MACROSCOPIC STATIC DIELECTRIC TENSOR IONIC CONTRIBUTION
           3.962250    -0.000000    -0.000000
          -0.000000     3.962364    -0.000002
          -0.000000    -0.000002     5.589598

 ELASTIC MODULI IONIC CONTR (kBar)
 Direction    XX          YY          ZZ          XY          YZ          ZX
 XX        -469.1413    424.9033    -82.2677      0.0000    264.4946     -0.0000
 YY         424.9033   -469.1413    -82.2677      0.0000   -264.4946      0.0000
 ZZ         -82.2677    -82.2677   -305.9794      0.0000     -0.0000     -0.0000
 XY           0.0000      0.0000      0.0000   -447.0348      0.0000    267.0657
 YZ         264.4946   -264.4946      0.0000      0.0000   -338.5562      0.0000
 ZX          -0.0000      0.0000     -0.0000    267.0657      0.0000   -342.8032

 PIEZOELECTRIC TENSOR IONIC CONTR  for field in x, y, z        (C/m^2)
          XX          YY          ZZ          XY          YZ          ZX
  x    -0.00009     0.00011     0.00002    -0.00000     0.00008     0.00000
  y     0.00004    -0.00001     0.00005    -0.00000    -0.00003     0.00000
  z    -0.00000    -0.00000    -0.00000    -0.00000    -0.00000     0.00000

 total charge

# of ion       s       p       d       tot
    1        1.969   5.608   0.079   7.655
    2        1.969   5.608   0.079   7.655
    3        1.969   5.608   0.079   7.655
    4        1.969   5.608   0.079   7.655
    5        1.969   5.608   0.079   7.655
    6        1.969   5.608   0.079   7.655
    7        2.216   6.160   2.051  10.427
    8        2.216   6.160   2.051  10.427
    9        2.216   6.160   2.051  10.427
   10        2.216   6.160   2.051  10.427
   11        2.216   6.160   2.051  10.427
   12        2.216   6.160   2.051  10.427
   13        1.569   3.492   0.000   5.061
   14        1.569   3.492   0.000   5.061
   15        1.570   3.501   0.000   5.070
   16        1.570   3.501   0.000   5.070
   17        1.569   3.500   0.000   5.070
   18        1.569   3.500   0.000   5.070
   19        1.569   3.492   0.000   5.061
   20        1.569   3.492   0.000   5.061
   21        1.570   3.501   0.000   5.070
   22        1.570   3.501   0.000   5.070
   23        1.569   3.500   0.000   5.070
   24        1.569   3.500   0.000   5.070
   25        1.569   3.492   0.000   5.061
   26        1.569   3.492   0.000   5.061
   27        1.570   3.501   0.000   5.070
   28        1.570   3.501   0.000   5.070
   29        1.569   3.500   0.000   5.070
   30        1.569   3.500   0.000   5.070
tot         53.355 133.568  12.778 199.701